33D32945 STP File, STP Format Version 1.0

SECTION Comment
Name "i640-235-PCST"
Creator "Indaco Biazzo" 
Remark "derived from Incidence graph by Cees Duin"
END

SECTION Graph
Nodes 640
Edges 1280
E 1 153 205.000000
E 1 268 201.000000
E 1 361 194.000000
E 1 391 201.000000
E 1 492 208.000000
E 1 547 194.000000
E 1 549 200.000000
E 2 118 201.000000
E 2 159 202.000000
E 2 239 201.000000
E 2 339 196.000000
E 3 66 204.000000
E 3 129 193.000000
E 3 514 197.000000
E 3 626 190.000000
E 4 93 194.000000
E 4 109 201.000000
E 4 140 195.000000
E 4 349 202.000000
E 4 365 196.000000
E 4 529 203.000000
E 5 336 208.000000
E 5 629 194.000000
E 6 64 203.000000
E 6 216 193.000000
E 6 467 202.000000
E 7 102 206.000000
E 7 333 191.000000
E 7 489 199.000000
E 7 524 202.000000
E 8 36 293.000000
E 8 51 212.000000
E 8 65 204.000000
E 8 342 200.000000
E 9 104 200.000000
E 9 426 200.000000
E 10 53 206.000000
E 10 270 192.000000
E 10 355 200.000000
E 10 452 198.000000
E 10 600 197.000000
E 11 171 191.000000
E 11 182 189.000000
E 11 252 195.000000
E 11 328 202.000000
E 11 581 200.000000
E 11 610 204.000000
E 11 619 195.000000
E 12 113 202.000000
E 12 156 192.000000
E 12 351 193.000000
E 13 32 304.000000
E 13 117 203.000000
E 13 360 195.000000
E 13 495 204.000000
E 14 215 202.000000
E 14 238 197.000000
E 14 381 194.000000
E 14 461 199.000000
E 15 16 301.000000
E 15 35 298.000000
E 15 95 195.000000
E 15 305 201.000000
E 15 368 202.000000
E 15 431 192.000000
E 15 470 196.000000
E 15 472 199.000000
E 16 185 209.000000
E 16 598 203.000000
E 17 183 201.000000
E 17 338 199.000000
E 18 275 204.000000
E 19 178 198.000000
E 19 201 205.000000
E 19 207 197.000000
E 19 276 194.000000
E 19 482 201.000000
E 20 340 201.000000
E 20 434 206.000000
E 21 39 302.000000
E 21 385 198.000000
E 21 405 195.000000
E 21 483 194.000000
E 21 554 197.000000
E 22 127 202.000000
E 22 268 189.000000
E 22 551 208.000000
E 23 154 203.000000
E 23 233 198.000000
E 23 235 203.000000
E 23 359 201.000000
E 24 139 198.000000
E 24 243 206.000000
E 24 259 198.000000
E 24 445 198.000000
E 25 161 205.000000
E 25 225 206.000000
E 25 364 195.000000
E 25 419 199.000000
E 25 587 203.000000
E 25 601 201.000000
E 26 415 195.000000
E 26 588 201.000000
E 26 600 201.000000
E 26 610 205.000000
E 26 623 206.000000
E 27 42 300.000000
E 27 218 202.000000
E 27 374 206.000000
E 27 398 202.000000
E 27 500 198.000000
E 27 582 205.000000
E 28 83 193.000000
E 28 162 200.000000
E 28 268 202.000000
E 28 575 202.000000
E 29 61 200.000000
E 29 133 199.000000
E 29 302 201.000000
E 30 195 189.000000
E 30 222 197.000000
E 30 237 204.000000
E 30 474 195.000000
E 30 592 193.000000
E 31 211 197.000000
E 31 236 202.000000
E 31 366 193.000000
E 31 435 199.000000
E 31 485 197.000000
E 32 102 204.000000
E 32 105 196.000000
E 32 139 203.000000
E 32 250 209.000000
E 32 304 202.000000
E 32 309 201.000000
E 32 332 201.000000
E 32 510 198.000000
E 32 602 196.000000
E 33 229 205.000000
E 33 609 197.000000
E 33 622 199.000000
E 34 53 203.000000
E 34 85 198.000000
E 34 622 199.000000
E 35 120 200.000000
E 35 359 196.000000
E 35 360 195.000000
E 36 54 199.000000
E 36 271 197.000000
E 36 517 198.000000
E 36 533 201.000000
E 37 65 207.000000
E 37 295 203.000000
E 37 382 210.000000
E 37 406 187.000000
E 37 457 193.000000
E 37 574 194.000000
E 37 632 200.000000
E 38 315 206.000000
E 38 341 196.000000
E 38 471 205.000000
E 38 501 195.000000
E 39 101 200.000000
E 39 437 193.000000
E 39 503 200.000000
E 39 511 204.000000
E 40 243 195.000000
E 40 260 202.000000
E 40 261 195.000000
E 40 620 209.000000
E 41 91 197.000000
E 41 302 203.000000
E 41 477 205.000000
E 42 47 298.000000
E 42 313 209.000000
E 42 314 199.000000
E 42 529 204.000000
E 43 246 198.000000
E 43 269 199.000000
E 43 491 196.000000
E 43 555 204.000000
E 44 193 202.000000
E 44 411 197.000000
E 45 303 197.000000
E 45 526 193.000000
E 46 71 197.000000
E 46 278 199.000000
E 46 327 191.000000
E 46 378 202.000000
E 47 129 195.000000
E 47 480 209.000000
E 48 132 200.000000
E 48 137 205.000000
E 48 284 196.000000
E 48 326 203.000000
E 48 473 204.000000
E 49 101 205.000000
E 49 103 212.000000
E 49 302 197.000000
E 49 308 199.000000
E 50 82 200.000000
E 50 234 200.000000
E 50 350 195.000000
E 50 360 203.000000
E 50 511 190.000000
E 50 546 208.000000
E 50 607 199.000000
E 51 332 90.000000
E 51 343 100.000000
E 51 567 107.000000
E 52 64 92.000000
E 52 121 99.000000
E 52 128 89.000000
E 52 196 113.000000
E 53 95 97.000000
E 53 272 97.000000
E 54 100 106.000000
E 54 222 104.000000
E 54 256 99.000000
E 54 305 101.000000
E 55 60 104.000000
E 56 81 101.000000
E 56 113 96.000000
E 56 225 97.000000
E 56 313 100.000000
E 56 423 98.000000
E 56 433 96.000000
E 56 442 106.000000
E 57 92 100.000000
E 57 121 103.000000
E 57 226 100.000000
E 57 429 100.000000
E 57 620 102.000000
E 58 142 95.000000
E 58 149 102.000000
E 58 195 98.000000
E 58 256 88.000000
E 58 570 103.000000
E 58 629 98.000000
E 59 71 99.000000
E 59 346 97.000000
E 59 410 93.000000
E 59 469 95.000000
E 60 126 103.000000
E 60 327 91.000000
E 60 500 111.000000
E 61 195 103.000000
E 61 372 99.000000
E 62 226 93.000000
E 62 257 98.000000
E 62 316 105.000000
E 62 518 103.000000
E 63 153 109.000000
E 63 313 98.000000
E 63 468 98.000000
E 64 352 96.000000
E 64 421 95.000000
E 65 72 103.000000
E 65 306 103.000000
E 65 456 105.000000
E 65 483 98.000000
E 66 241 101.000000
E 66 414 100.000000
E 67 135 105.000000
E 67 575 98.000000
E 68 177 98.000000
E 68 492 104.000000
E 69 302 94.000000
E 69 367 89.000000
E 69 455 105.000000
E 69 469 93.000000
E 69 516 101.000000
E 69 602 100.000000
E 70 568 93.000000
E 70 579 103.000000
E 71 163 104.000000
E 71 187 97.000000
E 71 312 103.000000
E 71 360 104.000000
E 71 507 90.000000
E 71 516 98.000000
E 71 564 103.000000
E 71 575 99.000000
E 72 232 98.000000
E 72 412 102.000000
E 72 554 102.000000
E 73 158 101.000000
E 73 175 99.000000
E 73 261 110.000000
E 73 339 98.000000
E 73 387 99.000000
E 73 593 99.000000
E 74 103 98.000000
E 74 234 101.000000
E 74 275 100.000000
E 74 579 94.000000
E 75 80 86.000000
E 75 169 100.000000
E 75 232 105.000000
E 75 315 100.000000
E 75 614 103.000000
E 76 144 104.000000
E 76 303 93.000000
E 76 421 94.000000
E 76 476 101.000000
E 76 632 99.000000
E 77 160 92.000000
E 77 263 105.000000
E 77 298 91.000000
E 77 516 104.000000
E 77 564 104.000000
E 78 202 105.000000
E 79 160 95.000000
E 79 282 95.000000
E 79 379 102.000000
E 79 419 97.000000
E 79 510 94.000000
E 79 522 96.000000
E 79 528 97.000000
E 79 618 105.000000
E 80 157 100.000000
E 80 428 96.000000
E 80 632 94.000000
E 81 142 100.000000
E 81 225 101.000000
E 81 574 97.000000
E 81 609 98.000000
E 82 393 94.000000
E 82 411 102.000000
E 82 512 103.000000
E 82 541 99.000000
E 83 153 100.000000
E 83 219 107.000000
E 83 492 101.000000
E 83 549 104.000000
E 83 557 105.000000
E 83 566 93.000000
E 83 567 102.000000
E 84 406 95.000000
E 84 565 101.000000
E 84 611 108.000000
E 85 144 96.000000
E 85 192 104.000000
E 85 543 98.000000
E 86 188 97.000000
E 86 246 104.000000
E 86 323 108.000000
E 86 337 100.000000
E 86 548 101.000000
E 87 221 104.000000
E 87 329 98.000000
E 87 545 104.000000
E 87 555 101.000000
E 88 236 96.000000
E 88 362 97.000000
E 88 522 98.000000
E 88 528 96.000000
E 88 559 90.000000
E 89 210 101.000000
E 89 443 112.000000
E 89 466 92.000000
E 90 143 97.000000
E 90 393 101.000000
E 91 221 100.000000
E 91 237 101.000000
E 91 238 104.000000
E 91 302 93.000000
E 91 309 98.000000
E 91 579 111.000000
E 91 629 94.000000
E 92 399 99.000000
E 93 247 91.000000
E 93 414 89.000000
E 93 432 106.000000
E 93 631 109.000000
E 94 227 101.000000
E 94 455 101.000000
E 95 390 96.000000
E 96 178 102.000000
E 96 184 99.000000
E 96 241 94.000000
E 96 462 90.000000
E 96 523 94.000000
E 96 593 94.000000
E 97 175 94.000000
E 98 283 110.000000
E 98 314 91.000000
E 98 588 95.000000
E 99 459 100.000000
E 99 625 99.000000
E 100 310 108.000000
E 100 550 101.000000
E 101 484 102.000000
E 101 608 105.000000
E 102 326 98.000000
E 102 401 99.000000
E 103 134 98.000000
E 103 345 97.000000
E 103 488 101.000000
E 104 137 103.000000
E 104 212 101.000000
E 104 487 99.000000
E 105 346 100.000000
E 105 384 90.000000
E 105 444 100.000000
E 105 521 97.000000
E 106 207 97.000000
E 106 441 98.000000
E 106 523 98.000000
E 106 631 97.000000
E 107 122 103.000000
E 107 193 103.000000
E 107 215 106.000000
E 107 382 95.000000
E 107 522 93.000000
E 107 537 110.000000
E 107 624 108.000000
E 108 109 99.000000
E 108 211 104.000000
E 109 115 94.000000
E 109 145 103.000000
E 109 201 101.000000
E 109 572 101.000000
E 110 178 106.000000
E 110 191 94.000000
E 110 522 91.000000
E 111 201 93.000000
E 111 368 98.000000
E 111 456 98.000000
E 111 509 95.000000
E 112 185 101.000000
E 112 448 102.000000
E 113 212 100.000000
E 113 453 99.000000
E 113 515 102.000000
E 114 234 95.000000
E 114 338 103.000000
E 115 232 116.000000
E 115 405 94.000000
E 116 557 96.000000
E 116 622 106.000000
E 117 138 108.000000
E 117 343 113.000000
E 117 355 104.000000
E 117 366 100.000000
E 117 375 100.000000
E 117 624 96.000000
E 118 251 100.000000
E 118 380 91.000000
E 119 219 104.000000
E 119 367 109.000000
E 119 374 99.000000
E 120 141 99.000000
E 120 336 92.000000
E 120 383 98.000000
E 120 452 95.000000
E 120 589 100.000000
E 121 294 106.000000
E 121 362 101.000000
E 121 419 94.000000
E 121 423 96.000000
E 121 522 102.000000
E 121 554 96.000000
E 122 228 100.000000
E 122 527 95.000000
E 122 574 105.000000
E 123 518 111.000000
E 123 619 95.000000
E 124 219 90.000000
E 124 580 103.000000
E 125 180 101.000000
E 125 325 104.000000
E 125 389 102.000000
E 125 459 103.000000
E 125 468 95.000000
E 126 176 101.000000
E 126 229 96.000000
E 126 314 95.000000
E 126 482 96.000000
E 126 493 91.000000
E 126 499 92.000000
E 127 395 99.000000
E 127 588 97.000000
E 128 418 101.000000
E 128 542 102.000000
E 128 552 98.000000
E 128 615 103.000000
E 128 617 89.000000
E 129 187 108.000000
E 129 280 93.000000
E 129 321 101.000000
E 129 437 97.000000
E 130 274 108.000000
E 130 484 98.000000
E 131 173 104.000000
E 131 302 97.000000
E 131 399 104.000000
E 131 568 93.000000
E 131 634 89.000000
E 132 292 95.000000
E 132 338 99.000000
E 132 537 98.000000
E 132 582 92.000000
E 133 288 100.000000
E 133 516 101.000000
E 133 629 95.000000
E 134 450 91.000000
E 134 630 91.000000
E 135 157 96.000000
E 135 200 101.000000
E 135 206 93.000000
E 135 232 102.000000
E 135 283 99.000000
E 135 480 97.000000
E 135 551 100.000000
E 136 294 96.000000
E 136 338 104.000000
E 136 426 88.000000
E 136 462 98.000000
E 136 582 89.000000
E 137 446 95.000000
E 137 540 112.000000
E 138 175 99.000000
E 139 185 104.000000
E 139 282 102.000000
E 139 500 99.000000
E 140 339 99.000000
E 141 386 106.000000
E 141 414 102.000000
E 141 444 101.000000
E 142 212 99.000000
E 142 465 92.000000
E 142 470 103.000000
E 142 561 100.000000
E 142 574 100.000000
E 142 610 98.000000
E 143 329 102.000000
E 144 171 106.000000
E 144 489 102.000000
E 144 627 94.000000
E 145 326 94.000000
E 145 611 98.000000
E 146 150 98.000000
E 146 346 98.000000
E 146 497 105.000000
E 147 151 94.000000
E 147 313 103.000000
E 148 467 99.000000
E 148 525 109.000000
E 149 294 99.000000
E 149 416 110.000000
E 149 505 99.000000
E 150 159 99.000000
E 150 332 109.000000
E 150 360 103.000000
E 150 457 96.000000
E 150 593 94.000000
E 151 322 99.000000
E 151 455 102.000000
E 151 556 109.000000
E 152 224 95.000000
E 152 298 101.000000
E 152 390 101.000000
E 153 272 101.000000
E 153 453 101.000000
E 154 425 92.000000
E 155 204 101.000000
E 155 384 92.000000
E 155 391 93.000000
E 155 533 105.000000
E 155 607 92.000000
E 156 327 104.000000
E 156 479 98.000000
E 157 447 108.000000
E 157 479 100.000000
E 157 566 101.000000
E 157 636 99.000000
E 158 208 103.000000
E 158 272 98.000000
E 158 468 102.000000
E 158 471 102.000000
E 159 314 107.000000
E 159 372 110.000000
E 159 378 108.000000
E 159 636 101.000000
E 160 515 102.000000
E 160 538 95.000000
E 160 608 103.000000
E 161 273 102.000000
E 161 486 99.000000
E 161 511 93.000000
E 161 519 104.000000
E 162 516 105.000000
E 163 361 100.000000
E 164 225 105.000000
E 164 476 89.000000
E 165 232 99.000000
E 165 518 100.000000
E 166 168 101.000000
E 166 242 87.000000
E 166 355 95.000000
E 166 488 107.000000
E 166 529 89.000000
E 167 298 97.000000
E 167 322 100.000000
E 167 359 104.000000
E 168 240 100.000000
E 168 504 106.000000
E 170 271 96.000000
E 170 275 100.000000
E 171 184 104.000000
E 171 392 98.000000
E 172 293 98.000000
E 172 327 104.000000
E 172 397 104.000000
E 172 522 107.000000
E 172 534 99.000000
E 172 612 87.000000
E 174 278 95.000000
E 174 329 111.000000
E 174 416 102.000000
E 174 489 103.000000
E 175 203 98.000000
E 175 230 104.000000
E 175 291 99.000000
E 175 510 99.000000
E 175 550 102.000000
E 175 603 102.000000
E 176 227 95.000000
E 176 464 101.000000
E 176 632 100.000000
E 177 191 97.000000
E 177 196 103.000000
E 177 427 105.000000
E 178 245 107.000000
E 178 283 91.000000
E 179 241 103.000000
E 179 269 97.000000
E 180 268 100.000000
E 180 294 99.000000
E 180 440 90.000000
E 181 196 102.000000
E 181 334 107.000000
E 181 349 97.000000
E 182 357 106.000000
E 182 444 106.000000
E 182 562 107.000000
E 182 604 98.000000
E 183 343 95.000000
E 183 428 99.000000
E 184 234 94.000000
E 184 288 103.000000
E 184 359 108.000000
E 185 266 103.000000
E 185 381 101.000000
E 186 483 102.000000
E 187 417 87.000000
E 188 254 105.000000
E 188 387 105.000000
E 188 600 102.000000
E 189 386 95.000000
E 189 634 107.000000
E 190 264 99.000000
E 192 286 99.000000
E 192 367 100.000000
E 192 371 91.000000
E 192 519 103.000000
E 192 624 98.000000
E 193 252 90.000000
E 193 625 104.000000
E 194 225 96.000000
E 194 487 97.000000
E 195 279 101.000000
E 195 552 96.000000
E 195 564 100.000000
E 196 236 97.000000
E 196 379 108.000000
E 196 541 95.000000
E 196 546 102.000000
E 197 634 104.000000
E 198 361 100.000000
E 198 410 95.000000
E 198 492 101.000000
E 198 496 102.000000
E 199 342 112.000000
E 199 439 99.000000
E 199 576 96.000000
E 199 592 97.000000
E 199 628 90.000000
E 200 237 93.000000
E 200 379 111.000000
E 200 386 87.000000
E 201 211 101.000000
E 201 216 106.000000
E 201 222 89.000000
E 201 579 105.000000
E 201 588 97.000000
E 202 264 108.000000
E 202 371 103.000000
E 202 409 105.000000
E 202 434 107.000000
E 203 403 104.000000
E 204 317 96.000000
E 204 367 97.000000
E 205 342 95.000000
E 205 630 95.000000
E 206 405 104.000000
E 206 557 105.000000
E 207 399 100.000000
E 207 498 102.000000
E 208 379 99.000000
E 209 314 95.000000
E 209 462 93.000000
E 209 561 98.000000
E 210 425 98.000000
E 210 522 102.000000
E 211 234 103.000000
E 211 309 92.000000
E 212 255 104.000000
E 212 270 98.000000
E 212 434 103.000000
E 212 536 101.000000
E 212 593 96.000000
E 213 273 103.000000
E 213 335 99.000000
E 213 403 96.000000
E 213 460 95.000000
E 213 484 93.000000
E 213 587 92.000000
E 213 615 107.000000
E 214 334 94.000000
E 214 364 97.000000
E 214 536 103.000000
E 214 577 99.000000
E 214 595 107.000000
E 216 266 98.000000
E 216 275 101.000000
E 216 310 100.000000
E 216 337 103.000000
E 216 350 102.000000
E 216 411 92.000000
E 216 523 103.000000
E 217 590 94.000000
E 218 391 104.000000
E 219 256 99.000000
E 219 346 85.000000
E 219 385 100.000000
E 219 487 98.000000
E 219 552 108.000000
E 220 335 105.000000
E 220 425 93.000000
E 222 244 101.000000
E 222 376 103.000000
E 223 395 98.000000
E 226 231 108.000000
E 226 359 88.000000
E 227 283 95.000000
E 227 429 99.000000
E 227 581 100.000000
E 228 320 99.000000
E 228 376 108.000000
E 228 605 102.000000
E 229 298 100.000000
E 229 339 105.000000
E 229 454 108.000000
E 230 393 97.000000
E 230 588 97.000000
E 232 450 103.000000
E 232 476 90.000000
E 232 479 96.000000
E 232 491 109.000000
E 232 506 100.000000
E 232 625 105.000000
E 234 343 100.000000
E 234 577 88.000000
E 234 603 108.000000
E 235 285 110.000000
E 235 307 101.000000
E 235 336 98.000000
E 235 384 97.000000
E 235 405 101.000000
E 235 519 98.000000
E 235 563 93.000000
E 235 593 98.000000
E 235 625 103.000000
E 236 510 103.000000
E 237 398 111.000000
E 238 358 96.000000
E 238 494 99.000000
E 238 505 105.000000
E 238 558 99.000000
E 239 249 110.000000
E 239 350 106.000000
E 239 538 101.000000
E 240 288 108.000000
E 241 246 96.000000
E 241 295 106.000000
E 241 329 106.000000
E 241 440 102.000000
E 242 254 102.000000
E 242 295 100.000000
E 243 245 96.000000
E 243 364 110.000000
E 243 485 97.000000
E 243 511 112.000000
E 244 507 97.000000
E 244 570 101.000000
E 244 624 102.000000
E 245 252 104.000000
E 245 441 99.000000
E 245 522 95.000000
E 245 551 94.000000
E 245 579 97.000000
E 246 277 100.000000
E 246 472 98.000000
E 247 500 94.000000
E 247 612 102.000000
E 248 280 102.000000
E 248 426 108.000000
E 248 535 95.000000
E 248 585 103.000000
E 249 276 96.000000
E 250 536 99.000000
E 251 322 93.000000
E 251 443 94.000000
E 253 278 106.000000
E 253 281 100.000000
E 253 286 106.000000
E 253 610 99.000000
E 254 336 100.000000
E 254 588 105.000000
E 255 315 101.000000
E 255 556 100.000000
E 255 632 97.000000
E 256 443 104.000000
E 257 303 102.000000
E 257 545 108.000000
E 257 612 99.000000
E 257 615 103.000000
E 258 299 100.000000
E 258 370 100.000000
E 258 442 103.000000
E 258 490 107.000000
E 258 492 91.000000
E 258 608 104.000000
E 258 631 100.000000
E 258 637 98.000000
E 259 340 99.000000
E 259 391 104.000000
E 259 557 109.000000
E 259 624 98.000000
E 260 337 102.000000
E 260 621 91.000000
E 261 309 103.000000
E 261 449 96.000000
E 262 634 104.000000
E 263 377 102.000000
E 263 600 99.000000
E 263 623 103.000000
E 264 422 100.000000
E 264 427 111.000000
E 265 426 93.000000
E 265 496 106.000000
E 265 514 103.000000
E 265 612 97.000000
E 266 337 99.000000
E 266 461 107.000000
E 266 464 109.000000
E 266 564 105.000000
E 267 350 106.000000
E 268 360 97.000000
E 268 362 100.000000
E 268 541 98.000000
E 269 501 94.000000
E 269 619 106.000000
E 270 273 92.000000
E 270 346 99.000000
E 270 417 99.000000
E 270 488 108.000000
E 271 291 91.000000
E 271 326 98.000000
E 271 495 93.000000
E 272 324 105.000000
E 272 369 101.000000
E 272 558 97.000000
E 273 364 101.000000
E 273 444 103.000000
E 274 294 95.000000
E 274 426 106.000000
E 274 516 98.000000
E 274 618 119.000000
E 274 620 100.000000
E 276 299 97.000000
E 276 351 101.000000
E 276 522 97.000000
E 276 547 102.000000
E 276 548 100.000000
E 277 344 100.000000
E 277 387 102.000000
E 277 412 95.000000
E 278 329 94.000000
E 278 568 98.000000
E 279 578 97.000000
E 279 594 101.000000
E 279 603 102.000000
E 280 463 99.000000
E 280 561 105.000000
E 281 402 100.000000
E 281 488 100.000000
E 281 554 112.000000
E 282 323 95.000000
E 282 342 94.000000
E 282 432 105.000000
E 282 522 95.000000
E 282 523 94.000000
E 283 468 95.000000
E 284 425 96.000000
E 285 342 108.000000
E 285 638 101.000000
E 286 561 98.000000
E 286 607 102.000000
E 287 297 103.000000
E 288 615 115.000000
E 289 361 90.000000
E 289 501 98.000000
E 289 566 102.000000
E 290 300 95.000000
E 290 364 101.000000
E 290 487 94.000000
E 290 497 99.000000
E 290 532 103.000000
E 291 611 101.000000
E 292 396 97.000000
E 293 425 97.000000
E 294 305 100.000000
E 295 396 92.000000
E 295 467 99.000000
E 295 586 101.000000
E 296 331 98.000000
E 296 579 99.000000
E 296 611 99.000000
E 297 467 97.000000
E 298 500 108.000000
E 299 458 109.000000
E 299 558 95.000000
E 299 560 95.000000
E 299 606 102.000000
E 300 598 101.000000
E 301 437 96.000000
E 302 573 97.000000
E 304 423 99.000000
E 304 634 103.000000
E 306 618 108.000000
E 306 623 95.000000
E 307 553 96.000000
E 308 397 94.000000
E 309 367 97.000000
E 310 358 97.000000
E 310 579 103.000000
E 311 384 113.000000
E 312 413 101.000000
E 312 521 95.000000
E 312 630 95.000000
E 312 634 106.000000
E 313 426 103.000000
E 314 418 102.000000
E 314 571 86.000000
E 315 542 99.000000
E 315 595 105.000000
E 316 317 103.000000
E 316 429 100.000000
E 316 544 102.000000
E 317 614 102.000000
E 318 483 93.000000
E 319 550 97.000000
E 319 605 115.000000
E 319 606 96.000000
E 320 454 103.000000
E 320 585 97.000000
E 320 612 93.000000
E 321 427 102.000000
E 321 534 109.000000
E 321 613 102.000000
E 323 370 97.000000
E 324 636 100.000000
E 326 375 103.000000
E 326 583 96.000000
E 326 593 98.000000
E 326 608 98.000000
E 327 380 103.000000
E 328 609 102.000000
E 330 364 101.000000
E 332 458 103.000000
E 332 571 96.000000
E 333 438 99.000000
E 333 441 98.000000
E 333 528 97.000000
E 333 572 100.000000
E 335 473 104.000000
E 336 518 103.000000
E 336 524 98.000000
E 338 339 94.000000
E 339 349 106.000000
E 339 440 92.000000
E 339 520 96.000000
E 339 594 105.000000
E 339 634 103.000000
E 340 351 102.000000
E 340 362 105.000000
E 341 426 103.000000
E 341 606 96.000000
E 343 361 96.000000
E 343 415 107.000000
E 343 495 84.000000
E 344 536 103.000000
E 345 449 101.000000
E 345 610 105.000000
E 347 413 103.000000
E 348 557 97.000000
E 349 512 110.000000
E 350 559 99.000000
E 350 561 92.000000
E 351 381 103.000000
E 351 606 103.000000
E 352 435 95.000000
E 352 579 99.000000
E 353 598 101.000000
E 354 376 101.000000
E 355 461 95.000000
E 355 582 107.000000
E 356 588 94.000000
E 357 416 105.000000
E 357 621 98.000000
E 357 627 97.000000
E 358 394 101.000000
E 358 431 112.000000
E 358 623 104.000000
E 359 376 98.000000
E 359 384 103.000000
E 360 428 94.000000
E 360 554 100.000000
E 361 498 102.000000
E 361 593 91.000000
E 361 612 101.000000
E 362 565 107.000000
E 363 430 99.000000
E 363 577 104.000000
E 364 412 95.000000
E 364 471 100.000000
E 364 596 101.000000
E 365 554 99.000000
E 365 563 102.000000
E 365 587 109.000000
E 366 401 103.000000
E 366 547 98.000000
E 366 582 98.000000
E 368 369 105.000000
E 369 551 99.000000
E 369 621 103.000000
E 370 371 103.000000
E 370 536 104.000000
E 371 595 101.000000
E 372 382 95.000000
E 372 408 96.000000
E 373 447 98.000000
E 373 518 99.000000
E 374 456 102.000000
E 374 517 95.000000
E 374 556 100.000000
E 377 518 98.000000
E 377 569 102.000000
E 377 600 97.000000
E 379 547 108.000000
E 380 384 102.000000
E 382 638 96.000000
E 383 451 100.000000
E 383 459 98.000000
E 384 420 97.000000
E 385 601 95.000000
E 385 621 103.000000
E 386 513 95.000000
E 387 573 101.000000
E 388 443 101.000000
E 389 440 97.000000
E 389 457 99.000000
E 390 579 96.000000
E 391 435 108.000000
E 392 400 101.000000
E 392 510 97.000000
E 393 489 99.000000
E 393 545 101.000000
E 393 584 106.000000
E 393 610 104.000000
E 394 427 96.000000
E 394 488 103.000000
E 395 449 102.000000
E 395 457 97.000000
E 396 539 108.000000
E 398 552 101.000000
E 399 521 100.000000
E 400 556 101.000000
E 402 470 106.000000
E 402 501 102.000000
E 403 534 99.000000
E 403 546 98.000000
E 403 640 100.000000
E 404 582 99.000000
E 404 601 93.000000
E 405 572 105.000000
E 406 453 100.000000
E 406 525 96.000000
E 406 623 104.000000
E 407 540 101.000000
E 409 526 101.000000
E 409 631 97.000000
E 409 635 93.000000
E 410 541 99.000000
E 412 414 101.000000
E 412 483 106.000000
E 413 523 96.000000
E 414 618 102.000000
E 415 488 94.000000
E 416 428 98.000000
E 416 437 103.000000
E 417 509 101.000000
E 417 566 102.000000
E 417 640 99.000000
E 419 500 100.000000
E 420 436 101.000000
E 422 424 97.000000
E 424 475 95.000000
E 424 569 110.000000
E 424 593 103.000000
E 425 632 98.000000
E 426 447 100.000000
E 426 616 95.000000
E 427 483 102.000000
E 427 582 99.000000
E 430 438 104.000000
E 430 633 100.000000
E 430 634 102.000000
E 430 637 102.000000
E 431 498 100.000000
E 431 514 104.000000
E 433 524 114.000000
E 433 536 96.000000
E 433 619 102.000000
E 434 469 110.000000
E 434 470 96.000000
E 435 469 101.000000
E 435 504 100.000000
E 435 599 96.000000
E 436 564 105.000000
E 436 567 101.000000
E 438 498 97.000000
E 438 533 96.000000
E 439 524 99.000000
E 440 451 108.000000
E 440 583 96.000000
E 442 448 102.000000
E 444 453 102.000000
E 444 531 100.000000
E 445 577 95.000000
E 445 593 94.000000
E 445 611 92.000000
E 446 536 100.000000
E 446 583 99.000000
E 447 578 101.000000
E 448 619 94.000000
E 449 455 102.000000
E 450 487 89.000000
E 450 499 95.000000
E 451 478 95.000000
E 452 474 109.000000
E 454 591 96.000000
E 455 593 101.000000
E 455 611 99.000000
E 457 489 100.000000
E 459 481 103.000000
E 460 490 98.000000
E 462 603 96.000000
E 464 508 101.000000
E 464 565 106.000000
E 467 581 103.000000
E 468 520 105.000000
E 470 473 104.000000
E 471 500 104.000000
E 471 581 94.000000
E 472 502 101.000000
E 475 558 94.000000
E 476 552 105.000000
E 477 542 97.000000
E 477 592 98.000000
E 478 516 103.000000
E 478 528 98.000000
E 478 549 103.000000
E 479 538 90.000000
E 479 549 107.000000
E 479 618 103.000000
E 483 612 101.000000
E 484 594 104.000000
E 484 600 96.000000
E 485 519 100.000000
E 485 634 99.000000
E 486 600 107.000000
E 487 513 106.000000
E 487 550 104.000000
E 488 619 95.000000
E 494 557 90.000000
E 495 591 95.000000
E 497 516 108.000000
E 498 539 99.000000
E 500 538 100.000000
E 500 602 96.000000
E 501 566 103.000000
E 501 627 110.000000
E 502 586 99.000000
E 502 627 100.000000
E 503 526 99.000000
E 503 609 99.000000
E 503 626 101.000000
E 504 561 93.000000
E 508 509 99.000000
E 509 599 100.000000
E 509 624 92.000000
E 512 611 93.000000
E 514 553 95.000000
E 514 618 106.000000
E 515 618 93.000000
E 516 522 101.000000
E 516 528 106.000000
E 519 533 104.000000
E 519 573 98.000000
E 521 637 101.000000
E 524 548 109.000000
E 526 590 100.000000
E 527 555 98.000000
E 527 604 95.000000
E 528 584 101.000000
E 529 572 102.000000
E 530 640 106.000000
E 536 605 97.000000
E 536 635 94.000000
E 539 545 91.000000
E 539 614 103.000000
E 541 547 97.000000
E 543 566 104.000000
E 544 573 109.000000
E 546 576 95.000000
E 546 599 103.000000
E 547 617 104.000000
E 547 619 97.000000
E 547 626 99.000000
E 548 569 100.000000
E 548 596 107.000000
E 549 608 111.000000
E 550 558 98.000000
E 550 585 103.000000
E 550 639 104.000000
E 551 571 98.000000
E 552 603 95.000000
E 554 624 108.000000
E 558 568 104.000000
E 563 574 103.000000
E 568 634 103.000000
E 571 607 90.000000
E 574 595 100.000000
E 581 600 104.000000
E 582 607 94.000000
E 586 623 105.000000
E 590 618 100.000000
E 594 622 101.000000
E 594 633 98.000000
E 597 613 90.000000
E 604 611 102.000000
E 612 629 106.000000
E 616 630 99.000000
E 618 622 101.000000
E 618 636 100.000000
E 628 629 88.000000
END

SECTION Terminals
Terminals 50
TP 1 124.000000
TP 2 16.000000
TP 3 612.000000
TP 4 664.000000
TP 5 904.000000
TP 6 744.000000
TP 7 316.000000
TP 8 200.000000
TP 9 720.000000
TP 10 1032.000000
TP 11 1092.000000
TP 12 304.000000
TP 13 96.000000
TP 14 1128.000000
TP 15 188.000000
TP 16 660.000000
TP 17 1208.000000
TP 18 960.000000
TP 19 592.000000
TP 20 1100.000000
TP 21 784.000000
TP 22 556.000000
TP 23 1072.000000
TP 24 468.000000
TP 25 172.000000
TP 26 928.000000
TP 27 1044.000000
TP 28 60.000000
TP 29 60.000000
TP 30 936.000000
TP 31 544.000000
TP 32 68.000000
TP 33 224.000000
TP 34 772.000000
TP 35 856.000000
TP 36 896.000000
TP 37 168.000000
TP 38 108.000000
TP 39 296.000000
TP 40 676.000000
TP 41 368.000000
TP 42 708.000000
TP 43 332.000000
TP 44 156.000000
TP 45 888.000000
TP 46 176.000000
TP 47 716.000000
TP 48 88.000000
TP 49 188.000000
TP 50 216.000000
END

EOF
